62 64 67 68 70 71 72 73 75 78 79 81 84 84 89 92 93 95 95 96 97 99 101 102 103 104 105 106 109 111 111 115 115 119 119 120 129 135 136 137 138 138 138 139 139 141 141 144 145 148 149 154 154 160 160 165 167 168 169 176 182 184 187 188 190 191 192 193 195 198 199 201 204 204 209 212 213 215 215 216 217 219 221 222 223 224 225 226 229 231 231 235 235 239 239 240 249 255 256 257 258 258 258 259 259 261 261 264 265 268 269 274 274 280 280 285 287 288 289 296